GeneratedTests/Random_6/Random_6_7.tsp
NAME: Random_6_7
TYPE: TSP
DIMENSION: 6
EDGE_WEIGHT_TYPE: EUC_2D
NODE_COORD_SECTION
1 9.551761 2.069995
2 7.4627876 8.907644
3 12.868537 8.184251
4 13.964567 1.6219822
5 5.267922 12.765796
6 7.5140486 12.169237
EOF
