GeneratedTests/Random_6/Random_6_7.txt
NAME: Random_6_7
TYPE: TSP
DIMENSION: 6
EDGE_WEIGHT_TYPE: EUC_2D
NODE_COORD_SECTION
1 1.4107797 10.774879
2 7.9748487 12.647774
3 0.55472374 1.5215743
4 16.103584 13.137289
5 14.937416 6.2493343
6 6.993172 16.466337
EOF
